60
872
30
0 3
0 5
0 6
0 7
0 9
0 10
0 11
0 12
0 13
0 14
0 15
0 19
0 20
0 24
0 26
0 27
0 29
0 30
0 31
0 32
0 35
0 37
0 41
0 43
0 45
0 46
0 47
0 48
0 50
0 55
0 56
0 57
0 58
0 59
1 2
1 6
1 9
1 14
1 15
1 17
1 19
1 22
1 23
1 26
1 27
1 28
1 30
1 31
1 32
1 33
1 34
1 37
1 38
1 43
1 45
1 47
1 51
1 52
1 53
1 56
1 57
2 5
2 9
2 10
2 12
2 13
2 15
2 16
2 17
2 18
2 19
2 20
2 21
2 24
2 28
2 30
2 31
2 32
2 35
2 36
2 37
2 38
2 39
2 40
2 41
2 52
2 53
2 58
2 59
3 8
3 10
3 12
3 13
3 17
3 19
3 21
3 26
3 28
3 31
3 33
3 34
3 35
3 37
3 38
3 39
3 41
3 43
3 45
3 46
3 47
3 48
3 49
3 53
3 54
3 55
3 56
3 57
4 5
4 10
4 12
4 13
4 15
4 16
4 18
4 19
4 20
4 21
4 24
4 25
4 28
4 29
4 31
4 32
4 34
4 36
4 38
4 41
4 43
4 44
4 45
4 46
4 47
4 49
4 50
4 52
4 53
4 54
4 55
4 56
4 57
4 58
4 59
5 6
5 13
5 14
5 15
5 17
5 18
5 19
5 21
5 22
5 23
5 26
5 27
5 32
5 33
5 39
5 41
5 42
5 45
5 46
5 49
5 51
5 52
5 53
5 57
5 58
6 7
6 8
6 10
6 12
6 13
6 14
6 16
6 17
6 19
6 21
6 23
6 25
6 27
6 29
6 30
6 31
6 32
6 35
6 37
6 38
6 39
6 41
6 43
6 46
6 47
6 48
6 51
6 52
6 54
6 56
6 58
7 19
7 21
7 22
7 25
7 26
7 28
7 29
7 31
7 35
7 36
7 38
7 39
7 40
7 42
7 45
7 46
7 47
7 49
7 50
7 53
7 54
7 55
8 9
8 10
8 12
8 13
8 17
8 18
8 20
8 21
8 27
8 32
8 34
8 35
8 36
8 38
8 39
8 41
8 49
8 50
8 56
8 57
8 58
8 59
9 11
9 12
9 16
9 19
9 20
9 23
9 27
9 28
9 29
9 31
9 32
9 33
9 34
9 35
9 36
9 37
9 38
9 41
9 43
9 45
9 51
9 52
9 55
9 57
9 59
10 12
10 13
10 14
10 15
10 16
10 17
10 19
10 20
10 22
10 23
10 24
10 25
10 26
10 27
10 29
10 31
10 37
10 38
10 41
10 43
10 45
10 47
10 52
10 54
10 55
10 57
10 59
11 13
11 15
11 16
11 18
11 20
11 24
11 26
11 27
11 28
11 29
11 37
11 39
11 42
11 45
11 46
11 47
11 49
11 52
11 56
11 57
11 58
11 59
12 13
12 14
12 16
12 17
12 19
12 22
12 23
12 25
12 26
12 29
12 31
12 33
12 34
12 35
12 40
12 47
12 48
12 49
12 51
12 52
12 56
12 57
12 58
13 14
13 16
13 23
13 25
13 26
13 28
13 29
13 33
13 35
13 36
13 37
13 39
13 40
13 41
13 42
13 44
13 45
13 48
13 49
13 50
13 52
13 55
13 58
13 59
14 18
14 21
14 22
14 23
14 26
14 27
14 34
14 36
14 40
14 41
14 44
14 46
14 49
14 50
14 51
14 52
14 53
14 54
14 55
14 56
14 57
14 59
15 21
15 22
15 24
15 25
15 28
15 30
15 31
15 33
15 34
15 35
15 36
15 37
15 39
15 41
15 43
15 45
15 46
15 52
15 53
15 56
15 58
16 21
16 22
16 23
16 24
16 26
16 27
16 28
16 30
16 31
16 33
16 34
16 37
16 38
16 39
16 42
16 46
16 47
16 48
16 49
16 50
16 54
16 56
16 58
16 59
17 18
17 19
17 20
17 21
17 22
17 23
17 24
17 26
17 27
17 28
17 31
17 32
17 34
17 35
17 40
17 42
17 43
17 45
17 46
17 47
17 50
17 55
17 56
18 19
18 20
18 21
18 22
18 23
18 27
18 29
18 36
18 43
18 46
18 47
18 49
18 50
18 58
19 20
19 21
19 22
19 23
19 28
19 33
19 36
19 37
19 39
19 40
19 41
19 45
19 48
19 49
19 50
19 51
19 53
19 54
20 21
20 22
20 25
20 26
20 31
20 32
20 33
20 34
20 35
20 37
20 38
20 40
20 42
20 43
20 44
20 45
20 46
20 47
20 48
20 50
20 54
20 56
20 57
20 59
21 22
21 27
21 29
21 30
21 31
21 33
21 34
21 37
21 39
21 40
21 44
21 47
21 48
21 49
21 52
21 54
21 56
21 58
21 59
22 23
22 25
22 26
22 32
22 34
22 38
22 43
22 44
22 45
22 46
22 47
22 51
22 53
22 56
22 58
22 59
23 27
23 30
23 32
23 34
23 37
23 42
23 44
23 45
23 49
23 50
23 57
23 58
24 27
24 30
24 31
24 32
24 33
24 35
24 37
24 38
24 39
24 40
24 41
24 46
24 48
24 49
24 51
24 56
25 30
25 32
25 35
25 38
25 42
25 43
25 45
25 46
25 48
25 49
25 59
26 27
26 28
26 30
26 32
26 35
26 37
26 38
26 40
26 42
26 43
26 44
26 45
26 49
26 50
26 51
26 54
26 56
26 58
26 59
27 28
27 30
27 32
27 33
27 34
27 36
27 38
27 39
27 45
27 46
27 47
27 49
27 52
27 53
27 59
28 29
28 30
28 33
28 35
28 36
28 37
28 39
28 40
28 41
28 42
28 43
28 45
28 49
28 54
28 55
28 56
28 59
29 32
29 37
29 40
29 41
29 45
29 48
29 49
29 51
29 52
29 53
29 54
29 58
29 59
30 32
30 35
30 37
30 38
30 39
30 41
30 42
30 43
30 46
30 47
30 49
30 50
30 51
30 53
30 55
30 56
31 34
31 35
31 36
31 37
31 38
31 39
31 41
31 44
31 45
31 47
31 51
31 55
31 57
31 58
32 37
32 43
32 44
32 49
32 50
32 51
32 54
32 55
32 56
32 57
32 58
32 59
33 34
33 35
33 36
33 42
33 44
33 45
33 46
33 47
33 48
33 51
33 52
33 55
33 58
33 59
34 36
34 38
34 40
34 41
34 44
34 50
34 51
34 52
34 56
34 57
34 58
35 36
35 37
35 38
35 41
35 42
35 43
35 45
35 51
35 55
35 56
35 58
35 59
36 38
36 40
36 42
36 43
36 45
36 46
36 47
36 49
36 50
36 53
36 54
36 57
36 58
36 59
37 39
37 42
37 44
37 47
37 48
37 52
37 54
37 55
37 57
37 58
38 42
38 43
38 47
38 48
38 50
38 51
38 54
38 56
38 57
38 58
39 40
39 46
39 47
39 48
39 51
39 52
39 54
39 57
39 58
40 41
40 42
40 43
40 45
40 46
40 48
40 49
40 50
40 51
40 52
40 55
40 56
40 59
41 43
41 44
41 46
41 48
41 50
41 51
41 57
42 43
42 44
42 46
42 49
42 51
42 54
42 55
43 45
43 47
43 48
43 50
43 51
43 53
43 56
43 58
43 59
44 46
44 47
44 48
44 49
44 50
44 51
44 52
44 53
44 54
44 55
44 56
44 59
45 49
45 53
45 55
45 58
46 47
46 49
46 52
46 56
46 57
46 59
47 49
47 50
47 51
47 52
47 53
48 50
48 51
48 53
48 56
48 58
48 59
49 50
49 51
49 52
49 54
49 56
49 57
49 59
50 55
50 57
51 53
51 58
52 53
52 56
52 57
53 56
53 58
53 59
54 56
55 56
55 59
56 57
56 58
56 59
58 59
11 27
32 45
13 39
3 19
53 59
9 56
33 54
4 6
25 42
29 51
12 14
10 37
5 48
31 35
26 44
17 46
16 22
8 49
18 55
21 50
28 38
15 34
41 57
2 36
43 47
20 30
7 23
24 52
40 58
0 1
